p ocr 66 33 66
1 88
2 76
3 79
4 93
5 68
6 77
7 84
8 89
9 86
10 91
11 83
12 86
13 87
14 70
15 75
16 83
17 80
18 97
19 78
20 97
21 77
22 95
23 92
24 90
25 67
26 73
27 73
28 87
29 93
30 95
31 72
32 88
33 76
34 69
35 85
36 91
37 67
38 78
39 74
40 75
41 81
42 82
43 84
44 70
45 96
46 68
47 85
48 98
49 71
50 74
51 89
52 94
53 79
54 92
55 82
56 94
57 80
58 69
59 71
60 99
61 72
62 90
63 99
64 96
65 98
66 81
